47
level2 carboxylate: neutral L2 B3LYP/PCM endpoint (provisional) with the carboxylic H removed
O 1.84447116 -4.96055773 -0.20194385
C 2.81689148 -4.03635956 -0.33734710
O 4.00030138 -4.32912686 -0.28977111
C 2.28984477 -2.65078811 -0.55295379
C 3.24839724 -1.67758166 -0.65419936
C 3.14519157 -0.25981582 -0.83459104
C 4.37438659 0.42001363 -0.69546179
C 4.47596306 1.79444072 -0.84737052
O 5.67330845 2.40602634 -0.68870793
C 3.33207086 2.52987158 -1.18260255
O 3.46374301 3.87086119 -1.34466789
C 2.10408897 1.88898825 -1.37006058
O 1.09839536 2.72321632 -1.71582839
C 1.95633894 0.48388041 -1.17402070
C 0.60507507 -0.05084643 -1.37957062
O -0.26468719 0.65004700 -1.96163018
C 0.14575107 -1.35090336 -0.86415782
O -1.21921948 -1.55199592 -0.80864337
C -2.06100008 -0.55275594 -0.25333536
O -1.40214146 0.01570982 0.85954118
C -2.14049928 1.10221360 1.43355759
C -1.25797976 1.74791552 2.49638880
O -0.06226088 2.30071962 1.95695702
C -3.46153310 0.55284156 1.99445810
O -4.23168587 1.64093363 2.49196851
C -4.22671378 -0.19229305 0.89829559
O -5.36955516 -0.77982842 1.51276364
C -3.35128561 -1.23708642 0.20466948
O -4.10426923 -1.75797903 -0.88418194
C 0.87344051 -2.46104181 -0.56068241
H 4.26663186 -2.03976932 -0.54923754
H 5.27218446 -0.14010584 -0.45766128
H 5.56204126 3.36220877 -0.84389159
H 2.59754643 4.23160562 -1.61529024
H 0.32767069 2.12520369 -1.95042901
H -2.27163859 0.21763532 -1.00263233
H -2.36704477 1.84548126 0.65170747
H -1.84985768 2.50135971 3.03180210
H -0.94411859 0.98389277 3.21543198
H -0.31303873 3.05023310 1.39189355
H -3.23053675 -0.15990722 2.80205507
H -5.10456996 1.27445822 2.71683478
H -4.54201528 0.54486499 0.14285213
H -5.89101517 -1.19185780 0.80320475
H -3.08646581 -2.02784346 0.92003173
H -3.64447061 -2.55020595 -1.20775276
H 0.27363783 -3.32500706 -0.29654735
